
Gurobi 12.0.2 (win64) logging started Fri Jun  6 10:10:23 2025

Set parameter LogFile to value "C:\Ioana\_uni\honours\slp\algorithm\Main_files\results\others\prox_tubules_new\Task_014_Sample004_irr_gurobi.log"
Gurobi Optimizer version 12.0.2 build v12.0.2rc0 (win64 - Windows 11.0 (26100.2))

CPU model: Intel(R) Core(TM) Ultra 5 125H, instruction set [SSE2|AVX|AVX2]
Thread count: 14 physical cores, 18 logical processors, using up to 18 threads

Non-default parameters:
TimeLimit  2200

Optimize a model with 47658 rows, 34794 columns and 147841 nonzeros
Model fingerprint: 0xf419322c
Variable types: 17400 continuous, 17394 integer (17394 binary)
Coefficient statistics:
  Matrix range     [1e-04, 8e+04]
  Objective range  [1e-04, 3e+00]
  Bounds range     [1e+00, 1e+03]
  RHS range        [1e+00, 1e+00]
Presolve removed 31206 rows and 21835 columns
Presolve time: 0.30s
Presolved: 16452 rows, 12959 columns, 54681 nonzeros
Variable types: 6413 continuous, 6546 integer (6546 binary)

Root relaxation: objective 1.476292e-03, 1546 iterations, 0.09 seconds (0.16 work units)

    Nodes    |    Current Node    |     Objective Bounds      |     Work
 Expl Unexpl |  Obj  Depth IntInf | Incumbent    BestBd   Gap | It/Node Time

     0     0    0.00148    0   12          -    0.00148      -     -    0s
H    0     0                       1.1960034    0.00148   100%     -    0s
     0     0    1.14612    0   11    1.19600    1.14612  4.17%     -    0s
     0     0    1.14612    0   10    1.19600    1.14612  4.17%     -    0s
     0     0    1.15145    0    6    1.19600    1.15145  3.73%     -    0s
     0     0    1.15679    0   10    1.19600    1.15679  3.28%     -    0s
     0     0    1.15679    0    9    1.19600    1.15679  3.28%     -    0s
     0     0    1.15876    0    6    1.19600    1.15876  3.11%     -    1s

Explored 1 nodes (2332 simplex iterations) in 1.10 seconds (1.15 work units)
Thread count was 18 (of 18 available processors)

Solution count 1: 1.196 

Optimal solution found (tolerance 1.00e-04)
Best objective 1.196003409904e+00, best bound 1.196003409904e+00, gap 0.0000%
